208185.44,22.27,24.4
207729.71,22.32,24.45
202270.71,22.93,25.11
201860.22,22.97,25.16
202149.96,22.94,25.13
208590.75,22.23,24.35
207900.65,22.31,24.43
207807.3,22.32,24.44
214226.56,21.65,23.71
196739.85,23.57,25.82
207856.53,22.31,24.44
200958.42,23.08,25.28
218751.13,21.2,23.22
215501.83,21.52,23.57
204057.65,22.73,24.89
207246.94,22.38,24.51
211781.53,21.9,23.98
202885.04,22.86,25.04
219421.46,21.13,23.15
206397.29,22.47,24.61
